c defined variables: 13 25 29 33 37 41 45 49 53 57 61 65 69 73 77 81 85 89 93 97 101 105 109 113 126 136 140 144 148 152 156 160 164 168 172 176 180 184 188 192 196 200 204 208 212 216 220 224 232 233 240 241 244 249 250 252 253 254 259 260 274 275 277 278 279 281 282 284 285 286 287 289 290 292 293 294 296 297 299 300 301 302 303 305 306 308 309 310 312 313 315 316 317 318 320 321 323 324 325 327 328 331 332 333 334 336 337 339 340 341 343 344 346 347 348 349 351 352 354 355 356 358 359 361 362 363 364 365 368 369 370 371 372 373 374 375 376 377 378 379 380 381 382 383 384 385 386 387 388 389 390 391 392 393 394 395 396 397 398 399 400 401 402 403 404 405 406 407 408 409 411 412 413 414 415 416 417 418 419 420 421 422 423 424 425 426 427 428 429 430 431 432 433 434 435 436 437 438 439 440 441 443 444 445 446 447 449 450 451 452 453 454 456 457 458 459 460 461 462 463 464 465 466 467 469 
p cnf 1624 2022
a 257 247 238 227 68 72 56 64 48 60 40 52 32 44 338 342 263 307 311 314 319 322 326 410 335 266 239 448 258 360 231 442 350 345 357 353 20 36 4 8 24 16 1 28 12 251 5 455 248 21 2 9 17 269 191 183 167 171 179 175 151 155 159 163 298 304 276 280 273 291 295 283 288 199 203 187 195 215 219 211 207 223 230 104 96 100 92 88 84 76 80 112 108 122 135 129 132 116 139 125 119 147 143 0
e 3 6 7 10 11 14 15 18 19 22 23 26 27 30 31 34 35 38 39 42 43 46 47 50 51 54 55 58 59 62 63 66 67 70 71 74 75 78 79 82 83 86 87 90 91 94 95 98 99 102 103 106 107 110 111 114 115 117 118 120 121 123 124 127 128 130 131 133 134 137 138 141 142 145 146 149 150 153 154 157 158 161 162 165 166 169 170 173 174 177 178 181 182 185 186 189 190 193 194 197 198 201 202 205 206 209 210 213 214 217 218 221 222 225 226 228 229 235 236 237 243 245 246 255 256 261 262 264 265 267 268 271 272 330 367 468 13 25 29 33 37 41 45 49 53 57 61 65 69 73 77 81 85 89 93 97 101 105 109 113 126 136 140 144 148 152 156 160 164 168 172 176 180 184 188 192 196 200 204 208 212 216 220 224 232 233 240 241 244 249 250 252 253 254 259 260 274 275 277 278 279 281 282 284 285 286 287 289 290 292 293 294 296 297 299 300 301 302 303 305 306 308 309 310 312 313 315 316 317 318 320 321 323 324 325 327 328 331 332 333 334 336 337 339 340 341 343 344 346 347 348 349 351 352 354 355 356 358 359 361 362 363 364 365 368 369 370 371 372 373 374 375 376 377 378 379 380 381 382 383 384 385 386 387 388 389 390 391 392 393 394 395 396 397 398 399 400 401 402 403 404 405 406 407 408 409 411 412 413 414 415 416 417 418 419 420 421 422 423 424 425 426 427 428 429 430 431 432 433 434 435 436 437 438 439 440 441 443 444 445 446 447 449 450 451 452 453 454 456 457 458 459 460 461 462 463 464 465 466 467 469 1415 1416 1417 1418 1419 1420 1421 1422 1423 1424 1425 1426 1427 1428 1429 1430 1431 1432 1433 1434 1435 1436 1437 1438 1439 1440 1441 1442 1443 1444 1445 1446 1447 1448 1449 1450 1451 1452 1453 1454 1455 1456 1457 1458 1459 1460 1461 1462 1463 1464 1465 1466 1467 1468 1469 1470 1471 1472 1473 1474 1475 1476 1477 1478 1479 1480 1481 1482 1483 1484 1485 1486 1487 1488 1489 1490 1491 1492 1493 1494 1495 1496 1497 1498 1499 1500 1501 1502 1503 1504 1505 1506 1507 1508 1509 1510 1511 1512 1513 1514 1515 1516 1517 1518 1519 1520 1521 1522 1523 1524 1525 1526 1527 1528 1529 1530 1531 1532 1533 1534 1535 1536 1537 1538 1539 1540 1541 1542 1543 1544 1545 1546 1547 1548 1549 1550 1551 1552 1553 1554 1555 1556 1557 1558 1559 1560 1561 1562 1563 1564 1565 1566 1567 1568 1569 1570 1571 1572 1573 1574 1575 1576 1577 1578 1579 1580 1581 1582 1583 1584 1585 1586 1587 1588 1589 1590 1591 1592 1593 1594 1595 1596 1597 1598 1599 1600 1601 1602 1603 1604 1605 1606 1607 1608 1609 1610 1611 1612 1613 1614 1615 1616 1617 1618 1619 1620 1621 1622 1623 1624 0
d 329 2 410 0
d 234 5 227 2 9 448 0
d 366 257 247 238 230 269 0
d 270 5 442 2 263 266 0
d 242 455 2 0
1416 -13 0
-1416 13 0
1417 -25 0
-1417 25 0
1418 -29 0
-1418 29 0
1419 -33 0
-1419 33 0
1420 -37 0
-1420 37 0
1421 -41 0
-1421 41 0
1422 -45 0
-1422 45 0
1423 -49 0
-1423 49 0
1424 -53 0
-1424 53 0
1425 -57 0
-1425 57 0
1426 -61 0
-1426 61 0
1427 -65 0
-1427 65 0
1428 -69 0
-1428 69 0
1429 -73 0
-1429 73 0
1430 -77 0
-1430 77 0
1431 -81 0
-1431 81 0
1432 -85 0
-1432 85 0
1433 -89 0
-1433 89 0
1434 -93 0
-1434 93 0
1435 -97 0
-1435 97 0
1436 -101 0
-1436 101 0
1437 -105 0
-1437 105 0
1438 -109 0
-1438 109 0
1439 -113 0
-1439 113 0
1440 -126 0
-1440 126 0
1441 -136 0
-1441 136 0
1442 -140 0
-1442 140 0
1443 -144 0
-1443 144 0
1444 -148 0
-1444 148 0
1445 -152 0
-1445 152 0
1446 -156 0
-1446 156 0
1423 -160 0
-1423 160 0
1447 -164 0
-1447 164 0
1448 -168 0
-1448 168 0
1449 -172 0
-1449 172 0
1450 -176 0
-1450 176 0
1451 -180 0
-1451 180 0
1452 -184 0
-1452 184 0
1453 -188 0
-1453 188 0
1454 -192 0
-1454 192 0
1455 -196 0
-1455 196 0
1456 -200 0
-1456 200 0
1457 -204 0
-1457 204 0
1435 -208 0
-1435 208 0
1458 -212 0
-1458 212 0
1459 -216 0
-1459 216 0
-1460 -220 0
1460 220 0
1461 -224 0
-1461 224 0
1462 -232 0
-1462 232 0
1463 -233 0
-1463 233 0
1464 -240 0
-1464 240 0
1465 -241 0
-1465 241 0
-1466 -244 0
1466 244 0
1467 -249 0
-1467 249 0
1468 -250 0
-1468 250 0
1469 -252 0
-1469 252 0
1470 -253 0
-1470 253 0
-1471 -254 0
1471 254 0
1472 -259 0
-1472 259 0
1473 -260 0
-1473 260 0
1474 -274 0
-1474 274 0
1475 -275 0
-1475 275 0
1476 -277 0
-1476 277 0
1477 -278 0
-1477 278 0
-1478 -279 0
1478 279 0
1479 -281 0
-1479 281 0
1480 -282 0
-1480 282 0
1481 -284 0
-1481 284 0
1482 -285 0
-1482 285 0
-1483 -286 0
1483 286 0
-1484 -287 0
1484 287 0
1485 -289 0
-1485 289 0
1486 -290 0
-1486 290 0
1487 -292 0
-1487 292 0
1488 -293 0
-1488 293 0
-1489 -294 0
1489 294 0
1490 -296 0
-1490 296 0
1491 -297 0
-1491 297 0
1492 -299 0
-1492 299 0
1493 -300 0
-1493 300 0
-1494 -301 0
1494 301 0
-1495 -302 0
1495 302 0
-1496 -303 0
1496 303 0
1497 -305 0
-1497 305 0
1498 -306 0
-1498 306 0
1499 -308 0
-1499 308 0
1500 -309 0
-1500 309 0
-1501 -310 0
1501 310 0
1502 -312 0
-1502 312 0
1503 -313 0
-1503 313 0
1504 -315 0
-1504 315 0
1505 -316 0
-1505 316 0
-1506 -317 0
1506 317 0
-1507 -318 0
1507 318 0
1508 -320 0
-1508 320 0
1509 -321 0
-1509 321 0
1510 -323 0
-1510 323 0
1511 -324 0
-1511 324 0
-1512 -325 0
1512 325 0
1513 -327 0
-1513 327 0
1514 -328 0
-1514 328 0
-1515 -331 0
1515 331 0
-1516 -332 0
1516 332 0
-1517 -333 0
1517 333 0
-1518 -334 0
1518 334 0
1519 -336 0
-1519 336 0
1520 -337 0
-1520 337 0
1521 -339 0
-1521 339 0
1522 -340 0
-1522 340 0
-1523 -341 0
1523 341 0
1524 -343 0
-1524 343 0
1525 -344 0
-1525 344 0
1526 -346 0
-1526 346 0
1527 -347 0
-1527 347 0
-1528 -348 0
1528 348 0
-1529 -349 0
1529 349 0
1530 -351 0
-1530 351 0
1531 -352 0
-1531 352 0
1532 -354 0
-1532 354 0
1533 -355 0
-1533 355 0
-1534 -356 0
1534 356 0
1535 -358 0
-1535 358 0
1536 -359 0
-1536 359 0
1537 -361 0
-1537 361 0
1538 -362 0
-1538 362 0
-1539 -363 0
1539 363 0
-1540 -364 0
1540 364 0
-1541 -365 0
1541 365 0
-1542 -368 0
1542 368 0
1543 -369 0
-1543 369 0
1544 -370 0
-1544 370 0
1545 -371 0
-1545 371 0
1546 -372 0
-1546 372 0
-1547 -373 0
1547 373 0
1548 -374 0
-1548 374 0
1549 -375 0
-1549 375 0
1550 -376 0
-1550 376 0
1551 -377 0
-1551 377 0
-1552 -378 0
1552 378 0
-1553 -379 0
1553 379 0
1554 -380 0
-1554 380 0
1555 -381 0
-1555 381 0
1556 -382 0
-1556 382 0
1557 -383 0
-1557 383 0
-1558 -384 0
1558 384 0
1559 -385 0
-1559 385 0
1560 -386 0
-1560 386 0
1561 -387 0
-1561 387 0
1562 -388 0
-1562 388 0
-1563 -389 0
1563 389 0
-1564 -390 0
1564 390 0
-1565 -391 0
1565 391 0
1566 -392 0
-1566 392 0
1567 -393 0
-1567 393 0
1568 -394 0
-1568 394 0
1569 -395 0
-1569 395 0
-1570 -396 0
1570 396 0
1571 -397 0
-1571 397 0
1572 -398 0
-1572 398 0
1573 -399 0
-1573 399 0
1574 -400 0
-1574 400 0
-1575 -401 0
1575 401 0
-1576 -402 0
1576 402 0
1577 -403 0
-1577 403 0
1578 -404 0
-1578 404 0
1579 -405 0
-1579 405 0
1580 -406 0
-1580 406 0
-1581 -407 0
1581 407 0
1582 -408 0
-1582 408 0
1583 -409 0
-1583 409 0
1584 -411 0
-1584 411 0
1585 -412 0
-1585 412 0
-1586 -413 0
1586 413 0
-1587 -414 0
1587 414 0
-1588 -415 0
1588 415 0
-1589 -416 0
1589 416 0
1519 -417 0
-1519 417 0
1590 -418 0
-1590 418 0
1521 -419 0
-1521 419 0
1591 -420 0
-1591 420 0
-1592 -421 0
1592 421 0
1524 -422 0
-1524 422 0
1593 -423 0
-1593 423 0
1526 -424 0
-1526 424 0
1594 -425 0
-1594 425 0
-1595 -426 0
1595 426 0
-1596 -427 0
1596 427 0
1530 -428 0
-1530 428 0
1597 -429 0
-1597 429 0
1532 -430 0
-1532 430 0
1598 -431 0
-1598 431 0
-1599 -432 0
1599 432 0
1535 -433 0
-1535 433 0
1600 -434 0
-1600 434 0
1537 -435 0
-1537 435 0
1601 -436 0
-1601 436 0
-1602 -437 0
1602 437 0
-1603 -438 0
1603 438 0
-1604 -439 0
1604 439 0
1472 -440 0
-1472 440 0
1605 -441 0
-1605 441 0
1606 -443 0
-1606 443 0
1607 -444 0
-1607 444 0
-1608 -445 0
1608 445 0
1462 -446 0
-1462 446 0
1609 -447 0
-1609 447 0
1610 -449 0
-1610 449 0
1611 -450 0
-1611 450 0
-1612 -451 0
1612 451 0
-1613 -452 0
1613 452 0
1464 -453 0
-1464 453 0
1614 -454 0
-1614 454 0
1615 -456 0
-1615 456 0
1616 -457 0
-1616 457 0
-1617 -458 0
1617 458 0
1467 -459 0
-1467 459 0
1618 -460 0
-1618 460 0
1469 -461 0
-1469 461 0
1619 -462 0
-1619 462 0
-1620 -463 0
1620 463 0
-1621 -464 0
1621 464 0
-1622 -465 0
1622 465 0
-1623 -466 0
1623 466 0
-1624 -467 0
1624 467 0
1415 -469 0
-1415 469 0
469 0
-469 272 468 0
-272 268 -271 0
-268 265 -267 0
-265 262 -264 0
-262 256 -261 0
-256 246 -255 0
-246 237 -245 0
-237 229 -236 0
-229 226 -228 0
-226 222 -225 0
-222 218 -221 0
-218 214 -217 0
-214 210 -213 0
-210 206 -209 0
-206 202 -205 0
-202 198 -201 0
-198 194 -197 0
-194 190 -193 0
-190 186 -189 0
-186 182 -185 0
-182 178 -181 0
-178 174 -177 0
-174 170 -173 0
-170 166 -169 0
-166 162 -165 0
-162 158 -161 0
-158 154 -157 0
-154 150 -153 0
-150 146 -149 0
-146 142 -145 0
-142 138 -141 0
-138 134 -137 0
-134 131 -133 0
-131 128 -130 0
-128 124 -127 0
-124 121 -123 0
-121 118 -120 0
-118 115 -117 0
-115 111 -114 0
-111 107 -110 0
-107 103 -106 0
-103 99 -102 0
-99 95 -98 0
-95 91 -94 0
-91 87 -90 0
-87 83 -86 0
-83 79 -82 0
-79 75 -78 0
-75 71 -74 0
-71 67 -70 0
-67 63 -66 0
-63 59 -62 0
-59 55 -58 0
-55 51 -54 0
-51 47 -50 0
-47 43 -46 0
-43 39 -42 0
-39 35 -38 0
-35 31 -34 0
-31 27 -30 0
-27 23 -26 0
-23 19 -22 0
-19 15 -18 0
-15 11 -14 0
-11 7 -10 0
-7 -3 -6 0
1 -2 3 0
-1 2 3 0
4 -5 6 0
-4 5 6 0
8 -9 10 0
-8 9 10 0
12 13 14 0
-12 -13 14 0
-4 -8 13 0
-13 4 0
-13 8 0
16 -17 18 0
-16 17 18 0
20 -21 22 0
-20 21 22 0
24 25 26 0
-24 -25 26 0
-16 -20 25 0
-25 16 0
-25 20 0
28 29 30 0
-28 -29 30 0
-12 -24 29 0
-29 12 0
-29 24 0
32 33 34 0
-32 -33 34 0
-5 -8 33 0
-33 5 0
-33 8 0
36 37 38 0
-36 -37 38 0
-32 -24 37 0
-37 32 0
-37 24 0
40 41 42 0
-40 -41 42 0
-4 -9 41 0
-41 4 0
-41 9 0
44 45 46 0
-44 -45 46 0
-40 -24 45 0
-45 40 0
-45 24 0
48 49 50 0
-48 -49 50 0
-5 -9 49 0
-49 5 0
-49 9 0
52 53 54 0
-52 -53 54 0
-48 -24 53 0
-53 48 0
-53 24 0
56 57 58 0
-56 -57 58 0
-17 -20 57 0
-57 17 0
-57 20 0
60 61 62 0
-60 -61 62 0
-12 -56 61 0
-61 12 0
-61 56 0
64 65 66 0
-64 -65 66 0
-32 -56 65 0
-65 32 0
-65 56 0
68 69 70 0
-68 -69 70 0
-40 -56 69 0
-69 40 0
-69 56 0
72 73 74 0
-72 -73 74 0
-48 -56 73 0
-73 48 0
-73 56 0
76 77 78 0
-76 -77 78 0
-16 -21 77 0
-77 16 0
-77 21 0
80 81 82 0
-80 -81 82 0
-12 -76 81 0
-81 12 0
-81 76 0
84 85 86 0
-84 -85 86 0
-32 -76 85 0
-85 32 0
-85 76 0
88 89 90 0
-88 -89 90 0
-40 -76 89 0
-89 40 0
-89 76 0
92 93 94 0
-92 -93 94 0
-48 -76 93 0
-93 48 0
-93 76 0
96 97 98 0
-96 -97 98 0
-17 -21 97 0
-97 17 0
-97 21 0
100 101 102 0
-100 -101 102 0
-12 -96 101 0
-101 12 0
-101 96 0
104 105 106 0
-104 -105 106 0
-32 -96 105 0
-105 32 0
-105 96 0
108 109 110 0
-108 -109 110 0
-40 -96 109 0
-109 40 0
-109 96 0
112 113 114 0
-112 -113 114 0
-48 -96 113 0
-113 48 0
-113 96 0
116 -2 117 0
-116 2 117 0
119 -5 120 0
-119 5 120 0
122 -9 123 0
-122 9 123 0
125 126 127 0
-125 -126 127 0
-119 -122 126 0
-126 119 0
-126 122 0
129 -17 130 0
-129 17 130 0
132 -21 133 0
-132 21 133 0
135 136 137 0
-135 -136 137 0
-129 -132 136 0
-136 129 0
-136 132 0
139 140 141 0
-139 -140 141 0
-125 -135 140 0
-140 125 0
-140 135 0
143 144 145 0
-143 -144 145 0
-5 -122 144 0
-144 5 0
-144 122 0
147 148 149 0
-147 -148 149 0
-143 -135 148 0
-148 143 0
-148 135 0
151 152 153 0
-151 -152 153 0
-119 -9 152 0
-152 119 0
-152 9 0
155 156 157 0
-155 -156 157 0
-151 -135 156 0
-156 151 0
-156 135 0
159 160 161 0
-159 -160 161 0
-5 -9 160 0
-160 5 0
-160 9 0
163 164 165 0
-163 -164 165 0
-159 -135 164 0
-164 159 0
-164 135 0
167 168 169 0
-167 -168 169 0
-17 -132 168 0
-168 17 0
-168 132 0
171 172 173 0
-171 -172 173 0
-125 -167 172 0
-172 125 0
-172 167 0
175 176 177 0
-175 -176 177 0
-143 -167 176 0
-176 143 0
-176 167 0
179 180 181 0
-179 -180 181 0
-151 -167 180 0
-180 151 0
-180 167 0
183 184 185 0
-183 -184 185 0
-159 -167 184 0
-184 159 0
-184 167 0
187 188 189 0
-187 -188 189 0
-129 -21 188 0
-188 129 0
-188 21 0
191 192 193 0
-191 -192 193 0
-125 -187 192 0
-192 125 0
-192 187 0
195 196 197 0
-195 -196 197 0
-143 -187 196 0
-196 143 0
-196 187 0
199 200 201 0
-199 -200 201 0
-151 -187 200 0
-200 151 0
-200 187 0
203 204 205 0
-203 -204 205 0
-159 -187 204 0
-204 159 0
-204 187 0
207 208 209 0
-207 -208 209 0
-17 -21 208 0
-208 17 0
-208 21 0
211 212 213 0
-211 -212 213 0
-125 -207 212 0
-212 125 0
-212 207 0
215 216 217 0
-215 -216 217 0
-143 -207 216 0
-216 143 0
-216 207 0
219 220 221 0
-219 -220 221 0
-151 207 220 0
151 -207 220 0
-151 -207 220 0
-220 151 207 0
223 224 225 0
-223 -224 225 0
-159 -207 224 0
-224 159 0
-224 207 0
227 187 228 0
-227 -187 228 0
230 235 236 0
-230 -235 236 0
-233 234 235 0
233 -234 235 0
-233 -234 235 0
-232 -199 233 0
-2 -231 232 0
-235 233 234 0
-233 232 0
-233 199 0
-232 2 0
-232 231 0
238 244 245 0
-238 -244 245 0
-241 243 244 0
241 -243 244 0
-241 -243 244 0
-240 -211 241 0
-2 -239 240 0
-242 -215 243 0
-244 241 243 0
-241 240 0
-241 211 0
-240 2 0
-240 239 0
-243 242 0
-243 215 0
247 254 255 0
-247 -254 255 0
-250 253 254 0
250 -253 254 0
-250 -253 254 0
-249 -219 250 0
-2 -248 249 0
-252 -223 253 0
-2 -251 252 0
-254 250 253 0
-250 249 0
-250 219 0
-249 2 0
-249 248 0
-253 252 0
-253 223 0
-252 2 0
-252 251 0
257 260 261 0
-257 -260 261 0
-259 -191 260 0
-2 -258 259 0
-260 259 0
-260 191 0
-259 2 0
-259 258 0
263 187 264 0
-263 -187 264 0
266 122 267 0
-266 -122 267 0
269 270 271 0
-269 -270 271 0
-468 -368 467 0
-468 368 -467 0
-368 334 367 0
-334 303 333 0
-303 287 302 0
-287 279 286 0
-279 275 278 0
-275 274 0
-275 139 0
-274 116 0
-274 273 0
-278 277 0
-278 147 0
-277 116 0
-277 276 0
-286 282 285 0
-282 281 0
-282 155 0
-281 116 0
-281 280 0
-285 284 0
-285 163 0
-284 116 0
-284 283 0
-302 294 301 0
-294 290 293 0
-290 289 0
-290 171 0
-289 116 0
-289 288 0
-293 292 0
-293 175 0
-292 116 0
-292 291 0
-301 297 300 0
-297 296 0
-297 179 0
-296 116 0
-296 295 0
-300 299 0
-300 183 0
-299 116 0
-299 298 0
-333 318 332 0
-318 310 317 0
-310 306 309 0
-306 305 0
-306 191 0
-305 116 0
-305 304 0
-309 308 0
-309 195 0
-308 116 0
-308 307 0
-317 313 316 0
-313 312 0
-313 199 0
-312 116 0
-312 311 0
-316 315 0
-316 203 0
-315 116 0
-315 314 0
-332 325 331 0
-325 321 324 0
-321 320 0
-321 211 0
-320 116 0
-320 319 0
-324 323 0
-324 215 0
-323 116 0
-323 322 0
-331 328 330 0
-328 327 0
-328 219 0
-327 116 0
-327 326 0
-330 329 0
-330 223 0
-367 365 366 0
-365 349 364 0
-349 341 348 0
-341 337 340 0
-337 336 0
-337 139 0
-336 2 0
-336 335 0
-340 339 0
-340 147 0
-339 2 0
-339 338 0
-348 344 347 0
-344 343 0
-344 155 0
-343 2 0
-343 342 0
-347 346 0
-347 163 0
-346 2 0
-346 345 0
-364 356 363 0
-356 352 355 0
-352 351 0
-352 171 0
-351 2 0
-351 350 0
-355 354 0
-355 175 0
-354 2 0
-354 353 0
-363 359 362 0
-359 358 0
-359 179 0
-358 2 0
-358 357 0
-362 361 0
-362 183 0
-361 2 0
-361 360 0
-467 416 466 0
-416 391 415 0
-391 379 390 0
-379 373 378 0
-373 370 372 0
-370 369 0
-370 28 0
-369 1 0
-369 273 0
-372 371 0
-372 36 0
-371 1 0
-371 276 0
-378 375 377 0
-375 374 0
-375 44 0
-374 1 0
-374 280 0
-377 376 0
-377 52 0
-376 1 0
-376 283 0
-390 384 389 0
-384 381 383 0
-381 380 0
-381 60 0
-380 1 0
-380 288 0
-383 382 0
-383 64 0
-382 1 0
-382 291 0
-389 386 388 0
-386 385 0
-386 68 0
-385 1 0
-385 295 0
-388 387 0
-388 72 0
-387 1 0
-387 298 0
-415 402 414 0
-402 396 401 0
-396 393 395 0
-393 392 0
-393 80 0
-392 1 0
-392 304 0
-395 394 0
-395 84 0
-394 1 0
-394 307 0
-401 398 400 0
-398 397 0
-398 88 0
-397 1 0
-397 311 0
-400 399 0
-400 92 0
-399 1 0
-399 314 0
-414 407 413 0
-407 404 406 0
-404 403 0
-404 100 0
-403 1 0
-403 319 0
-406 405 0
-406 104 0
-405 1 0
-405 322 0
-413 409 412 0
-409 408 0
-409 108 0
-408 1 0
-408 326 0
-412 411 0
-412 112 0
-411 1 0
-411 410 0
-466 439 465 0
-439 427 438 0
-427 421 426 0
-421 418 420 0
-418 417 0
-418 28 0
-417 2 0
-417 335 0
-420 419 0
-420 36 0
-419 2 0
-419 338 0
-426 423 425 0
-423 422 0
-423 44 0
-422 2 0
-422 342 0
-425 424 0
-425 52 0
-424 2 0
-424 345 0
-438 432 437 0
-432 429 431 0
-429 428 0
-429 60 0
-428 2 0
-428 350 0
-431 430 0
-431 64 0
-430 2 0
-430 353 0
-437 434 436 0
-434 433 0
-434 68 0
-433 2 0
-433 357 0
-436 435 0
-436 72 0
-435 2 0
-435 360 0
-465 452 464 0
-452 445 451 0
-445 441 444 0
-441 440 0
-441 80 0
-440 2 0
-440 258 0
-444 443 0
-444 84 0
-443 2 0
-443 442 0
-451 447 450 0
-447 446 0
-447 88 0
-446 2 0
-446 231 0
-450 449 0
-450 92 0
-449 2 0
-449 448 0
-464 458 463 0
-458 454 457 0
-454 453 0
-454 100 0
-453 2 0
-453 239 0
-457 456 0
-457 104 0
-456 2 0
-456 455 0
-463 460 462 0
-460 459 0
-460 108 0
-459 2 0
-459 248 0
-462 461 0
-462 112 0
-461 2 0
-461 251 0
-334 367 368 0
334 -367 368 0
-334 -367 368 0
-303 333 334 0
303 -333 334 0
-303 -333 334 0
-287 302 303 0
287 -302 303 0
-287 -302 303 0
-279 286 287 0
279 -286 287 0
-279 -286 287 0
-275 278 279 0
275 -278 279 0
-275 -278 279 0
-274 -139 275 0
-116 -273 274 0
-277 -147 278 0
-116 -276 277 0
-282 285 286 0
282 -285 286 0
-282 -285 286 0
-281 -155 282 0
-116 -280 281 0
-284 -163 285 0
-116 -283 284 0
-294 301 302 0
294 -301 302 0
-294 -301 302 0
-290 293 294 0
290 -293 294 0
-290 -293 294 0
-289 -171 290 0
-116 -288 289 0
-292 -175 293 0
-116 -291 292 0
-297 300 301 0
297 -300 301 0
-297 -300 301 0
-296 -179 297 0
-116 -295 296 0
-299 -183 300 0
-116 -298 299 0
-318 332 333 0
318 -332 333 0
-318 -332 333 0
-310 317 318 0
310 -317 318 0
-310 -317 318 0
-306 309 310 0
306 -309 310 0
-306 -309 310 0
-305 -191 306 0
-116 -304 305 0
-308 -195 309 0
-116 -307 308 0
-313 316 317 0
313 -316 317 0
-313 -316 317 0
-312 -199 313 0
-116 -311 312 0
-315 -203 316 0
-116 -314 315 0
-325 331 332 0
325 -331 332 0
-325 -331 332 0
-321 324 325 0
321 -324 325 0
-321 -324 325 0
-320 -211 321 0
-116 -319 320 0
-323 -215 324 0
-116 -322 323 0
-328 330 331 0
328 -330 331 0
-328 -330 331 0
-327 -219 328 0
-116 -326 327 0
-329 -223 330 0
-365 366 367 0
365 -366 367 0
-365 -366 367 0
-349 364 365 0
349 -364 365 0
-349 -364 365 0
-341 348 349 0
341 -348 349 0
-341 -348 349 0
-337 340 341 0
337 -340 341 0
-337 -340 341 0
-336 -139 337 0
-2 -335 336 0
-339 -147 340 0
-2 -338 339 0
-344 347 348 0
344 -347 348 0
-344 -347 348 0
-343 -155 344 0
-2 -342 343 0
-346 -163 347 0
-2 -345 346 0
-356 363 364 0
356 -363 364 0
-356 -363 364 0
-352 355 356 0
352 -355 356 0
-352 -355 356 0
-351 -171 352 0
-2 -350 351 0
-354 -175 355 0
-2 -353 354 0
-359 362 363 0
359 -362 363 0
-359 -362 363 0
-358 -179 359 0
-2 -357 358 0
-361 -183 362 0
-2 -360 361 0
-416 466 467 0
416 -466 467 0
-416 -466 467 0
-391 415 416 0
391 -415 416 0
-391 -415 416 0
-379 390 391 0
379 -390 391 0
-379 -390 391 0
-373 378 379 0
373 -378 379 0
-373 -378 379 0
-370 372 373 0
370 -372 373 0
-370 -372 373 0
-369 -28 370 0
-1 -273 369 0
-371 -36 372 0
-1 -276 371 0
-375 377 378 0
375 -377 378 0
-375 -377 378 0
-374 -44 375 0
-1 -280 374 0
-376 -52 377 0
-1 -283 376 0
-384 389 390 0
384 -389 390 0
-384 -389 390 0
-381 383 384 0
381 -383 384 0
-381 -383 384 0
-380 -60 381 0
-1 -288 380 0
-382 -64 383 0
-1 -291 382 0
-386 388 389 0
386 -388 389 0
-386 -388 389 0
-385 -68 386 0
-1 -295 385 0
-387 -72 388 0
-1 -298 387 0
-402 414 415 0
402 -414 415 0
-402 -414 415 0
-396 401 402 0
396 -401 402 0
-396 -401 402 0
-393 395 396 0
393 -395 396 0
-393 -395 396 0
-392 -80 393 0
-1 -304 392 0
-394 -84 395 0
-1 -307 394 0
-398 400 401 0
398 -400 401 0
-398 -400 401 0
-397 -88 398 0
-1 -311 397 0
-399 -92 400 0
-1 -314 399 0
-407 413 414 0
407 -413 414 0
-407 -413 414 0
-404 406 407 0
404 -406 407 0
-404 -406 407 0
-403 -100 404 0
-1 -319 403 0
-405 -104 406 0
-1 -322 405 0
-409 412 413 0
409 -412 413 0
-409 -412 413 0
-408 -108 409 0
-1 -326 408 0
-411 -112 412 0
-1 -410 411 0
-439 465 466 0
439 -465 466 0
-439 -465 466 0
-427 438 439 0
427 -438 439 0
-427 -438 439 0
-421 426 427 0
421 -426 427 0
-421 -426 427 0
-418 420 421 0
418 -420 421 0
-418 -420 421 0
-417 -28 418 0
-2 -335 417 0
-419 -36 420 0
-2 -338 419 0
-423 425 426 0
423 -425 426 0
-423 -425 426 0
-422 -44 423 0
-2 -342 422 0
-424 -52 425 0
-2 -345 424 0
-432 437 438 0
432 -437 438 0
-432 -437 438 0
-429 431 432 0
429 -431 432 0
-429 -431 432 0
-428 -60 429 0
-2 -350 428 0
-430 -64 431 0
-2 -353 430 0
-434 436 437 0
434 -436 437 0
-434 -436 437 0
-433 -68 434 0
-2 -357 433 0
-435 -72 436 0
-2 -360 435 0
-452 464 465 0
452 -464 465 0
-452 -464 465 0
-445 451 452 0
445 -451 452 0
-445 -451 452 0
-441 444 445 0
441 -444 445 0
-441 -444 445 0
-440 -80 441 0
-2 -258 440 0
-443 -84 444 0
-2 -442 443 0
-447 450 451 0
447 -450 451 0
-447 -450 451 0
-446 -88 447 0
-2 -231 446 0
-449 -92 450 0
-2 -448 449 0
-458 463 464 0
458 -463 464 0
-458 -463 464 0
-454 457 458 0
454 -457 458 0
-454 -457 458 0
-453 -100 454 0
-2 -239 453 0
-456 -104 457 0
-2 -455 456 0
-460 462 463 0
460 -462 463 0
-460 -462 463 0
-459 -108 460 0
-2 -248 459 0
-461 -112 462 0
-2 -251 461 0
1415 0
4 -1416 0
8 -1416 0
-4 -8 1416 0
20 -1417 0
16 -1417 0
-20 -16 1417 0
24 -1418 0
12 -1418 0
-24 -12 1418 0
8 -1419 0
5 -1419 0
-8 -5 1419 0
32 -1420 0
24 -1420 0
-32 -24 1420 0
4 -1421 0
9 -1421 0
-4 -9 1421 0
40 -1422 0
24 -1422 0
-40 -24 1422 0
5 -1423 0
9 -1423 0
-5 -9 1423 0
48 -1424 0
24 -1424 0
-48 -24 1424 0
20 -1425 0
17 -1425 0
-20 -17 1425 0
56 -1426 0
12 -1426 0
-56 -12 1426 0
56 -1427 0
32 -1427 0
-56 -32 1427 0
56 -1428 0
40 -1428 0
-56 -40 1428 0
56 -1429 0
48 -1429 0
-56 -48 1429 0
16 -1430 0
21 -1430 0
-16 -21 1430 0
12 -1431 0
76 -1431 0
-12 -76 1431 0
32 -1432 0
76 -1432 0
-32 -76 1432 0
40 -1433 0
76 -1433 0
-40 -76 1433 0
48 -1434 0
76 -1434 0
-48 -76 1434 0
21 -1435 0
17 -1435 0
-21 -17 1435 0
12 -1436 0
96 -1436 0
-12 -96 1436 0
32 -1437 0
96 -1437 0
-32 -96 1437 0
40 -1438 0
96 -1438 0
-40 -96 1438 0
48 -1439 0
96 -1439 0
-48 -96 1439 0
122 -1440 0
119 -1440 0
-122 -119 1440 0
129 -1441 0
132 -1441 0
-129 -132 1441 0
135 -1442 0
125 -1442 0
-135 -125 1442 0
5 -1443 0
122 -1443 0
-5 -122 1443 0
135 -1444 0
143 -1444 0
-135 -143 1444 0
9 -1445 0
119 -1445 0
-9 -119 1445 0
151 -1446 0
135 -1446 0
-151 -135 1446 0
159 -1447 0
135 -1447 0
-159 -135 1447 0
17 -1448 0
132 -1448 0
-17 -132 1448 0
167 -1449 0
125 -1449 0
-167 -125 1449 0
167 -1450 0
143 -1450 0
-167 -143 1450 0
167 -1451 0
151 -1451 0
-167 -151 1451 0
167 -1452 0
159 -1452 0
-167 -159 1452 0
21 -1453 0
129 -1453 0
-21 -129 1453 0
187 -1454 0
125 -1454 0
-187 -125 1454 0
187 -1455 0
143 -1455 0
-187 -143 1455 0
151 -1456 0
187 -1456 0
-151 -187 1456 0
159 -1457 0
187 -1457 0
-159 -187 1457 0
207 -1458 0
125 -1458 0
-207 -125 1458 0
207 -1459 0
143 -1459 0
-207 -143 1459 0
-151 -1460 0
-207 -1460 0
151 207 1460 0
159 -1461 0
207 -1461 0
-159 -207 1461 0
231 -1462 0
2 -1462 0
-231 -2 1462 0
199 -1463 0
232 -1463 0
-199 -232 1463 0
239 -1464 0
2 -1464 0
-239 -2 1464 0
211 -1465 0
240 -1465 0
-211 -240 1465 0
-241 -1466 0
-243 -1466 0
241 243 1466 0
248 -1467 0
2 -1467 0
-248 -2 1467 0
219 -1468 0
249 -1468 0
-219 -249 1468 0
251 -1469 0
2 -1469 0
-251 -2 1469 0
223 -1470 0
252 -1470 0
-223 -252 1470 0
-250 -1471 0
-253 -1471 0
250 253 1471 0
258 -1472 0
2 -1472 0
-258 -2 1472 0
191 -1473 0
259 -1473 0
-191 -259 1473 0
273 -1474 0
116 -1474 0
-273 -116 1474 0
139 -1475 0
274 -1475 0
-139 -274 1475 0
276 -1476 0
116 -1476 0
-276 -116 1476 0
147 -1477 0
277 -1477 0
-147 -277 1477 0
-275 -1478 0
-278 -1478 0
275 278 1478 0
280 -1479 0
116 -1479 0
-280 -116 1479 0
155 -1480 0
281 -1480 0
-155 -281 1480 0
283 -1481 0
116 -1481 0
-283 -116 1481 0
163 -1482 0
284 -1482 0
-163 -284 1482 0
-282 -1483 0
-285 -1483 0
282 285 1483 0
-279 -1484 0
-286 -1484 0
279 286 1484 0
288 -1485 0
116 -1485 0
-288 -116 1485 0
171 -1486 0
289 -1486 0
-171 -289 1486 0
291 -1487 0
116 -1487 0
-291 -116 1487 0
175 -1488 0
292 -1488 0
-175 -292 1488 0
-290 -1489 0
-293 -1489 0
290 293 1489 0
295 -1490 0
116 -1490 0
-295 -116 1490 0
179 -1491 0
296 -1491 0
-179 -296 1491 0
298 -1492 0
116 -1492 0
-298 -116 1492 0
183 -1493 0
299 -1493 0
-183 -299 1493 0
-297 -1494 0
-300 -1494 0
297 300 1494 0
-294 -1495 0
-301 -1495 0
294 301 1495 0
-287 -1496 0
-302 -1496 0
287 302 1496 0
304 -1497 0
116 -1497 0
-304 -116 1497 0
191 -1498 0
305 -1498 0
-191 -305 1498 0
307 -1499 0
116 -1499 0
-307 -116 1499 0
195 -1500 0
308 -1500 0
-195 -308 1500 0
-306 -1501 0
-309 -1501 0
306 309 1501 0
311 -1502 0
116 -1502 0
-311 -116 1502 0
199 -1503 0
312 -1503 0
-199 -312 1503 0
314 -1504 0
116 -1504 0
-314 -116 1504 0
203 -1505 0
315 -1505 0
-203 -315 1505 0
-313 -1506 0
-316 -1506 0
313 316 1506 0
-310 -1507 0
-317 -1507 0
310 317 1507 0
319 -1508 0
116 -1508 0
-319 -116 1508 0
211 -1509 0
320 -1509 0
-211 -320 1509 0
322 -1510 0
116 -1510 0
-322 -116 1510 0
215 -1511 0
323 -1511 0
-215 -323 1511 0
-321 -1512 0
-324 -1512 0
321 324 1512 0
326 -1513 0
116 -1513 0
-326 -116 1513 0
219 -1514 0
327 -1514 0
-219 -327 1514 0
-328 -1515 0
-330 -1515 0
328 330 1515 0
-325 -1516 0
-331 -1516 0
325 331 1516 0
-318 -1517 0
-332 -1517 0
318 332 1517 0
-303 -1518 0
-333 -1518 0
303 333 1518 0
335 -1519 0
2 -1519 0
-335 -2 1519 0
139 -1520 0
336 -1520 0
-139 -336 1520 0
338 -1521 0
2 -1521 0
-338 -2 1521 0
147 -1522 0
339 -1522 0
-147 -339 1522 0
-337 -1523 0
-340 -1523 0
337 340 1523 0
342 -1524 0
2 -1524 0
-342 -2 1524 0
155 -1525 0
343 -1525 0
-155 -343 1525 0
345 -1526 0
2 -1526 0
-345 -2 1526 0
163 -1527 0
346 -1527 0
-163 -346 1527 0
-344 -1528 0
-347 -1528 0
344 347 1528 0
-341 -1529 0
-348 -1529 0
341 348 1529 0
350 -1530 0
2 -1530 0
-350 -2 1530 0
171 -1531 0
351 -1531 0
-171 -351 1531 0
353 -1532 0
2 -1532 0
-353 -2 1532 0
175 -1533 0
354 -1533 0
-175 -354 1533 0
-352 -1534 0
-355 -1534 0
352 355 1534 0
357 -1535 0
2 -1535 0
-357 -2 1535 0
179 -1536 0
358 -1536 0
-179 -358 1536 0
360 -1537 0
2 -1537 0
-360 -2 1537 0
183 -1538 0
361 -1538 0
-183 -361 1538 0
-359 -1539 0
-362 -1539 0
359 362 1539 0
-356 -1540 0
-363 -1540 0
356 363 1540 0
-349 -1541 0
-364 -1541 0
349 364 1541 0
-334 -1542 0
-367 -1542 0
334 367 1542 0
1 -1543 0
273 -1543 0
-1 -273 1543 0
28 -1544 0
369 -1544 0
-28 -369 1544 0
1 -1545 0
276 -1545 0
-1 -276 1545 0
36 -1546 0
371 -1546 0
-36 -371 1546 0
-370 -1547 0
-372 -1547 0
370 372 1547 0
1 -1548 0
280 -1548 0
-1 -280 1548 0
44 -1549 0
374 -1549 0
-44 -374 1549 0
1 -1550 0
283 -1550 0
-1 -283 1550 0
52 -1551 0
376 -1551 0
-52 -376 1551 0
-375 -1552 0
-377 -1552 0
375 377 1552 0
-373 -1553 0
-378 -1553 0
373 378 1553 0
1 -1554 0
288 -1554 0
-1 -288 1554 0
60 -1555 0
380 -1555 0
-60 -380 1555 0
1 -1556 0
291 -1556 0
-1 -291 1556 0
64 -1557 0
382 -1557 0
-64 -382 1557 0
-381 -1558 0
-383 -1558 0
381 383 1558 0
1 -1559 0
295 -1559 0
-1 -295 1559 0
68 -1560 0
385 -1560 0
-68 -385 1560 0
1 -1561 0
298 -1561 0
-1 -298 1561 0
72 -1562 0
387 -1562 0
-72 -387 1562 0
-386 -1563 0
-388 -1563 0
386 388 1563 0
-384 -1564 0
-389 -1564 0
384 389 1564 0
-379 -1565 0
1564 -1565 0
379 -1564 1565 0
1 -1566 0
304 -1566 0
-1 -304 1566 0
80 -1567 0
392 -1567 0
-80 -392 1567 0
307 -1568 0
1 -1568 0
-307 -1 1568 0
84 -1569 0
394 -1569 0
-84 -394 1569 0
-393 -1570 0
-395 -1570 0
393 395 1570 0
311 -1571 0
1 -1571 0
-311 -1 1571 0
88 -1572 0
397 -1572 0
-88 -397 1572 0
314 -1573 0
1 -1573 0
-314 -1 1573 0
92 -1574 0
399 -1574 0
-92 -399 1574 0
-398 -1575 0
-400 -1575 0
398 400 1575 0
-396 -1576 0
-401 -1576 0
396 401 1576 0
319 -1577 0
1 -1577 0
-319 -1 1577 0
100 -1578 0
403 -1578 0
-100 -403 1578 0
322 -1579 0
1 -1579 0
-322 -1 1579 0
104 -1580 0
405 -1580 0
-104 -405 1580 0
-404 -1581 0
-406 -1581 0
404 406 1581 0
326 -1582 0
1 -1582 0
-326 -1 1582 0
108 -1583 0
408 -1583 0
-108 -408 1583 0
410 -1584 0
1 -1584 0
-410 -1 1584 0
112 -1585 0
411 -1585 0
-112 -411 1585 0
-409 -1586 0
-412 -1586 0
409 412 1586 0
-407 -1587 0
-413 -1587 0
407 413 1587 0
-402 -1588 0
-414 -1588 0
402 414 1588 0
-391 -1589 0
-415 -1589 0
391 415 1589 0
28 -1590 0
417 -1590 0
-28 -417 1590 0
36 -1591 0
419 -1591 0
-36 -419 1591 0
-418 -1592 0
-420 -1592 0
418 420 1592 0
44 -1593 0
422 -1593 0
-44 -422 1593 0
52 -1594 0
424 -1594 0
-52 -424 1594 0
-423 -1595 0
-425 -1595 0
423 425 1595 0
-421 -1596 0
-426 -1596 0
421 426 1596 0
60 -1597 0
428 -1597 0
-60 -428 1597 0
64 -1598 0
430 -1598 0
-64 -430 1598 0
-429 -1599 0
-431 -1599 0
429 431 1599 0
68 -1600 0
433 -1600 0
-68 -433 1600 0
72 -1601 0
435 -1601 0
-72 -435 1601 0
-434 -1602 0
-436 -1602 0
434 436 1602 0
-432 -1603 0
-437 -1603 0
432 437 1603 0
-427 -1604 0
1603 -1604 0
427 -1603 1604 0
80 -1605 0
440 -1605 0
-80 -440 1605 0
442 -1606 0
2 -1606 0
-442 -2 1606 0
84 -1607 0
443 -1607 0
-84 -443 1607 0
-441 -1608 0
-444 -1608 0
441 444 1608 0
88 -1609 0
446 -1609 0
-88 -446 1609 0
448 -1610 0
2 -1610 0
-448 -2 1610 0
92 -1611 0
449 -1611 0
-92 -449 1611 0
-447 -1612 0
-450 -1612 0
447 450 1612 0
-445 -1613 0
1612 -1613 0
445 -1612 1613 0
100 -1614 0
453 -1614 0
-100 -453 1614 0
455 -1615 0
2 -1615 0
-455 -2 1615 0
104 -1616 0
456 -1616 0
-104 -456 1616 0
-454 -1617 0
-457 -1617 0
454 457 1617 0
108 -1618 0
459 -1618 0
-108 -459 1618 0
112 -1619 0
461 -1619 0
-112 -461 1619 0
-460 -1620 0
-462 -1620 0
460 462 1620 0
-458 -1621 0
-463 -1621 0
458 463 1621 0
-452 -1622 0
-464 -1622 0
452 464 1622 0
-439 -1623 0
-465 -1623 0
439 465 1623 0
-416 -1624 0
1623 -1624 0
416 -1623 1624 0
